
Gurobi 11.0.3 (linux64) logging started Fri Nov 22 07:55:12 2024

Set parameter LogFile to value "/home/yihong/Coding/OR_SUC/SUC_results_bigM100000_thread4/case24_ieee_rts_theta0.1_epsilon0.05_gurobi_seed670000_num_gen100_N_WDR100_load_scaling_factor1_exact_T20quadra_cost.txt"
Set parameter TimeLimit to value 3600
Gurobi Optimizer version 11.0.3 build v11.0.3rc0 (linux64 - "Ubuntu 20.04.6 LTS")

CPU model: AMD EPYC 7532 32-Core Processor, instruction set [SSE2|AVX|AVX2]
Thread count: 64 physical cores, 128 logical processors, using up to 4 threads

Optimize a model with 47983 rows, 25001 columns and 1104482 nonzeros
Model fingerprint: 0x90bd4d01
Model has 2000 quadratic constraints
Variable types: 22901 continuous, 2100 integer (2100 binary)
Coefficient statistics:
  Matrix range     [1e-04, 1e+05]
  QMatrix range    [2e-03, 8e-03]
  QLMatrix range   [4e-02, 6e+01]
  Objective range  [1e+00, 1e+00]
  Bounds range     [1e+00, 1e+00]
  RHS range        [1e+00, 1e+05]
Presolve removed 39265 rows and 10646 columns
Presolve time: 0.33s
Presolved: 8718 rows, 14355 columns, 48260 nonzeros
Presolved model has 2000 quadratic constraint(s)
Variable types: 12272 continuous, 2083 integer (2083 binary)

Root relaxation: objective 2.377030e+04, 6871 iterations, 0.18 seconds (0.25 work units)

    Nodes    |    Current Node    |     Objective Bounds      |     Work
 Expl Unexpl |  Obj  Depth IntInf | Incumbent    BestBd   Gap | It/Node Time

     0     0 23770.3014    0   30          - 23770.3014      -     -    0s
     0     0 222639.708    0  771          - 222639.708      -     -    1s
     0     0 223228.922    0  766          - 223228.922      -     -    1s
     0     0 453020.246    0  766          - 453020.246      -     -    1s
     0     0 453135.654    0  473          - 453135.654      -     -    1s
     0     0 453754.889    0  216          - 453754.889      -     -    1s
     0     0 453795.865    0  213          - 453795.865      -     -    1s
     0     0 454443.787    0  216          - 454443.787      -     -    1s
     0     0 454458.916    0  211          - 454458.916      -     -    1s
     0     0 454462.760    0  211          - 454462.760      -     -    1s
     0     2 454468.588    0  211          - 454468.588      -     -    2s
   232   246 455446.417   55  203          - 454901.975      -  30.0    5s
H  747   562                    456044.05003 454975.423  0.23%  23.9    7s
*  747   562             210    456044.05003 454975.423  0.23%  23.9    7s
   939   519 455852.356   75  211 456044.050 454983.832  0.23%  24.3   10s
   961   534 455341.598   11  273 456044.050 455118.164  0.20%  23.7   15s
  1985   919 456013.860  175    - 456044.050 455283.623  0.17%  42.0   20s
H 2701   683                    455650.50146 455283.623  0.08%  42.9   21s
* 2701   683             132    455650.50146 455283.623  0.08%  43.0   21s

Cutting planes:
  Gomory: 11
  Implied bound: 153
  Projected implied bound: 2
  MIR: 85
  Flow cover: 219
  RLT: 10

Explored 2723 nodes (135787 simplex iterations) in 22.25 seconds (28.23 work units)
Thread count was 4 (of 128 available processors)

Solution count 3: 455651 455651 456044 

Optimal solution found (tolerance 1.00e-03)
Warning: max constraint violation (1.4809e-04) exceeds tolerance
         (model may be infeasible or unbounded - try turning presolve off)
Best objective 4.556505011563e+05, best bound 4.552836231575e+05, gap 0.0805%
